r = [
0,61,92,310,188,349,109,169,211,333,183,342,274,147,131,167,60,82,183,69,388,201,22,308,309,53,0
];
p = [
0,23,27,17,16,25,6,5,6,24,1,9,5,23,23,9,23,19,21,19,10,23,29,17,25,29,0
];
e = [
0,5,12,14,13,12,6,15,19,20,8,6,12,6,15,14,19,12,19,11,6,20,9,10,3,11,0
];
d = [
0,196,119,472,262,374,309,183,356,519,184,351,464,373,154,298,83,162,204,263,398,224,94,529,334,123,544
];
d_bar = [
0,217,143,487,276,397,314,188,361,541,185,359,469,394,175,306,104,179,223,280,407,245,120,544,357,149,544
];
w = [
0,0.238095238,0.5,0.933333333,0.928571429,0.52173913,1.2,3,3.8,0.909090909,8,0.75,2.4,0.285714286,0.714285714,1.75,0.904761905,0.705882353,1,0.647058824,0.666666667,0.952380952,0.346153846,0.666666667,0.130434783,0.423076923,0
];
